2 1
3 1
3 2
4 1
4 2
4 3
5 1
5 2
5 3
5 4
6 1
6 2
6 3
6 4
6 5
7 1
7 2
7 3
7 4
7 5
7 6
8 1
8 2
8 3
8 4
8 5
8 6
8 7
9 1
9 2
9 3
9 4
9 5
9 6
9 7
9 8
10 1
10 2
10 3
10 4
10 5
10 6
10 7
10 8
10 9
11 1
11 2
12 1
12 2
12 3
12 11
13 2
13 3
13 4
13 11
13 12
14 3
14 4
14 5
14 11
14 12
14 13
15 4
15 5
15 6
15 11
15 12
15 13
15 14
16 5
16 6
16 7
16 11
16 12
16 13
16 14
16 15
17 6
17 7
17 8
17 11
17 12
17 13
17 14
17 15
17 16
18 7
18 8
18 9
18 11
18 12
18 13
18 14
18 15
18 16
18 17
19 8
19 9
19 10
19 11
19 12
19 13
19 14
19 15
19 16
19 17
19 18
20 9
20 10
20 11
20 12
20 13
20 14
20 15
20 16
20 17
20 18
20 19
21 1
21 3
21 11
21 12
22 2
22 4
22 11
22 12
22 13
22 21
23 1
23 3
23 5
23 12
23 13
23 14
23 21
23 22
24 2
24 4
24 6
24 13
24 14
24 15
24 21
24 22
24 23
25 3
25 5
25 7
25 14
25 15
25 16
25 21
25 22
25 23
25 24
26 4
26 6
26 8
26 15
26 16
26 17
26 21
26 22
26 23
26 24
26 25
27 5
27 7
27 9
27 16
27 17
27 18
27 21
27 22
27 23
27 24
27 25
27 26
28 6
28 8
28 10
28 17
28 18
28 19
28 21
28 22
28 23
28 24
28 25
28 26
28 27
29 7
29 9
29 18
29 19
29 20
29 21
29 22
29 23
29 24
29 25
29 26
29 27
29 28
30 8
30 10
30 19
30 20
30 21
30 22
30 23
30 24
30 25
30 26
30 27
30 28
30 29
31 1
31 4
31 11
31 13
31 21
31 22
32 2
32 5
32 12
32 14
32 21
32 22
32 23
32 31
33 3
33 6
33 11
33 13
33 15
33 22
33 23
33 24
33 31
33 32
34 1
34 4
34 7
34 12
34 14
34 16
34 23
34 24
34 25
34 31
34 32
34 33
35 2
35 5
35 8
35 13
35 15
35 17
35 24
35 25
35 26
35 31
35 32
35 33
35 34
36 3
36 6
36 9
36 14
36 16
36 18
36 25
36 26
36 27
36 31
36 32
36 33
36 34
36 35
37 4
37 7
37 10
37 15
37 17
37 19
37 26
37 27
37 28
37 31
37 32
37 33
37 34
37 35
37 36
38 5
38 8
38 16
38 18
38 20
38 27
38 28
38 29
38 31
38 32
38 33
38 34
38 35
38 36
38 37
39 6
39 9
39 17
39 19
39 28
39 29
39 30
39 31
39 32
39 33
39 34
39 35
39 36
39 37
39 38
40 7
40 10
40 18
40 20
40 29
40 30
40 31
40 32
40 33
40 34
40 35
40 36
40 37
40 38
40 39
41 1
41 5
41 11
41 14
41 21
41 23
41 31
41 32
42 2
42 6
42 12
42 15
42 22
42 24
42 31
42 32
42 33
42 41
43 3
43 7
43 13
43 16
43 21
43 23
43 25
43 32
43 33
43 34
43 41
43 42
44 4
44 8
44 11
44 14
44 17
44 22
44 24
44 26
44 33
44 34
44 35
44 41
44 42
44 43
45 1
45 5
45 9
45 12
45 15
45 18
45 23
45 25
45 27
45 34
45 35
45 36
45 41
45 42
45 43
45 44
46 2
46 6
46 10
46 13
46 16
46 19
46 24
46 26
46 28
46 35
46 36
46 37
46 41
46 42
46 43
46 44
46 45
47 3
47 7
47 14
47 17
47 20
47 25
47 27
47 29
47 36
47 37
47 38
47 41
47 42
47 43
47 44
47 45
47 46
48 4
48 8
48 15
48 18
48 26
48 28
48 30
48 37
48 38
48 39
48 41
48 42
48 43
48 44
48 45
48 46
48 47
49 5
49 9
49 16
49 19
49 27
49 29
49 38
49 39
49 40
49 41
49 42
49 43
49 44
49 45
49 46
49 47
49 48
50 6
50 10
50 17
50 20
50 28
50 30
50 39
50 40
50 41
50 42
50 43
50 44
50 45
50 46
50 47
50 48
50 49
51 1
51 6
51 11
51 15
51 21
51 24
51 31
51 33
51 41
51 42
52 2
52 7
52 12
52 16
52 22
52 25
52 32
52 34
52 41
52 42
52 43
52 51
53 3
53 8
53 13
53 17
53 23
53 26
53 31
53 33
53 35
53 42
53 43
53 44
53 51
53 52
54 4
54 9
54 14
54 18
54 21
54 24
54 27
54 32
54 34
54 36
54 43
54 44
54 45
54 51
54 52
54 53
55 5
55 10
55 11
55 15
55 19
55 22
55 25
55 28
55 33
55 35
55 37
55 44
55 45
55 46
55 51
55 52
55 53
55 54
56 1
56 6
56 12
56 16
56 20
56 23
56 26
56 29
56 34
56 36
56 38
56 45
56 46
56 47
56 51
56 52
56 53
56 54
56 55
57 2
57 7
57 13
57 17
57 24
57 27
57 30
57 35
57 37
57 39
57 46
57 47
57 48
57 51
57 52
57 53
57 54
57 55
57 56
58 3
58 8
58 14
58 18
58 25
58 28
58 36
58 38
58 40
58 47
58 48
58 49
58 51
58 52
58 53
58 54
58 55
58 56
58 57
59 4
59 9
59 15
59 19
59 26
59 29
59 37
59 39
59 48
59 49
59 50
59 51
59 52
59 53
59 54
59 55
59 56
59 57
59 58
60 5
60 10
60 16
60 20
60 27
60 30
60 38
60 40
60 49
60 50
60 51
60 52
60 53
60 54
60 55
60 56
60 57
60 58
60 59
61 1
61 7
61 11
61 16
61 21
61 25
61 31
61 34
61 41
61 43
61 51
61 52
62 2
62 8
62 12
62 17
62 22
62 26
62 32
62 35
62 42
62 44
62 51
62 52
62 53
62 61
63 3
63 9
63 13
63 18
63 23
63 27
63 33
63 36
63 41
63 43
63 45
63 52
63 53
63 54
63 61
63 62
64 4
64 10
64 14
64 19
64 24
64 28
64 31
64 34
64 37
64 42
64 44
64 46
64 53
64 54
64 55
64 61
64 62
64 63
65 5
65 15
65 20
65 21
65 25
65 29
65 32
65 35
65 38
65 43
65 45
65 47
65 54
65 55
65 56
65 61
65 62
65 63
65 64
66 6
66 11
66 16
66 22
66 26
66 30
66 33
66 36
66 39
66 44
66 46
66 48
66 55
66 56
66 57
66 61
66 62
66 63
66 64
66 65
67 1
67 7
67 12
67 17
67 23
67 27
67 34
67 37
67 40
67 45
67 47
67 49
67 56
67 57
67 58
67 61
67 62
67 63
67 64
67 65
67 66
68 2
68 8
68 13
68 18
68 24
68 28
68 35
68 38
68 46
68 48
68 50
68 57
68 58
68 59
68 61
68 62
68 63
68 64
68 65
68 66
68 67
69 3
69 9
69 14
69 19
69 25
69 29
69 36
69 39
69 47
69 49
69 58
69 59
69 60
69 61
69 62
69 63
69 64
69 65
69 66
69 67
69 68
70 4
70 10
70 15
70 20
70 26
70 30
70 37
70 40
70 48
70 50
70 59
70 60
70 61
70 62
70 63
70 64
70 65
70 66
70 67
70 68
70 69
71 1
71 8
71 11
71 17
71 21
71 26
71 31
71 35
71 41
71 44
71 51
71 53
71 61
71 62
72 2
72 9
72 12
72 18
72 22
72 27
72 32
72 36
72 42
72 45
72 52
72 54
72 61
72 62
72 63
72 71
73 3
73 10
73 13
73 19
73 23
73 28
73 33
73 37
73 43
73 46
73 51
73 53
73 55
73 62
73 63
73 64
73 71
73 72
74 4
74 14
74 20
74 24
74 29
74 34
74 38
74 41
74 44
74 47
74 52
74 54
74 56
74 63
74 64
74 65
74 71
74 72
74 73
75 5
75 15
75 25
75 30
75 31
75 35
75 39
75 42
75 45
75 48
75 53
75 55
75 57
75 64
75 65
75 66
75 71
75 72
75 73
75 74
76 6
76 16
76 21
76 26
76 32
76 36
76 40
76 43
76 46
76 49
76 54
76 56
76 58
76 65
76 66
76 67
76 71
76 72
76 73
76 74
76 75
77 7
77 11
77 17
77 22
77 27
77 33
77 37
77 44
77 47
77 50
77 55
77 57
77 59
77 66
77 67
77 68
77 71
77 72
77 73
77 74
77 75
77 76
78 1
78 8
78 12
78 18
78 23
78 28
78 34
78 38
78 45
78 48
78 56
78 58
78 60
78 67
78 68
78 69
78 71
78 72
78 73
78 74
78 75
78 76
78 77
79 2
79 9
79 13
79 19
79 24
79 29
79 35
79 39
79 46
79 49
79 57
79 59
79 68
79 69
79 70
79 71
79 72
79 73
79 74
79 75
79 76
79 77
79 78
80 3
80 10
80 14
80 20
80 25
80 30
80 36
80 40
80 47
80 50
80 58
80 60
80 69
80 70
80 71
80 72
80 73
80 74
80 75
80 76
80 77
80 78
80 79
81 1
81 9
81 11
81 18
81 21
81 27
81 31
81 36
81 41
81 45
81 51
81 54
81 61
81 63
81 71
81 72
82 2
82 10
82 12
82 19
82 22
82 28
82 32
82 37
82 42
82 46
82 52
82 55
82 62
82 64
82 71
82 72
82 73
82 81
83 3
83 13
83 20
83 23
83 29
83 33
83 38
83 43
83 47
83 53
83 56
83 61
83 63
83 65
83 72
83 73
83 74
83 81
83 82
84 4
84 14
84 24
84 30
84 34
84 39
84 44
84 48
84 51
84 54
84 57
84 62
84 64
84 66
84 73
84 74
84 75
84 81
84 82
84 83
85 5
85 15
85 25
85 35
85 40
85 41
85 45
85 49
85 52
85 55
85 58
85 63
85 65
85 67
85 74
85 75
85 76
85 81
85 82
85 83
85 84
86 6
86 16
86 26
86 31
86 36
86 42
86 46
86 50
86 53
86 56
86 59
86 64
86 66
86 68
86 75
86 76
86 77
86 81
86 82
86 83
86 84
86 85
87 7
87 17
87 21
87 27
87 32
87 37
87 43
87 47
87 54
87 57
87 60
87 65
87 67
87 69
87 76
87 77
87 78
87 81
87 82
87 83
87 84
87 85
87 86
88 8
88 11
88 18
88 22
88 28
88 33
88 38
88 44
88 48
88 55
88 58
88 66
88 68
88 70
88 77
88 78
88 79
88 81
88 82
88 83
88 84
88 85
88 86
88 87
89 1
89 9
89 12
89 19
89 23
89 29
89 34
89 39
89 45
89 49
89 56
89 59
89 67
89 69
89 78
89 79
89 80
89 81
89 82
89 83
89 84
89 85
89 86
89 87
89 88
90 2
90 10
90 13
90 20
90 24
90 30
90 35
90 40
90 46
90 50
90 57
90 60
90 68
90 70
90 79
90 80
90 81
90 82
90 83
90 84
90 85
90 86
90 87
90 88
90 89
91 1
91 10
91 11
91 19
91 21
91 28
91 31
91 37
91 41
91 46
91 51
91 55
91 61
91 64
91 71
91 73
91 81
91 82
92 2
92 12
92 20
92 22
92 29
92 32
92 38
92 42
92 47
92 52
92 56
92 62
92 65
92 72
92 74
92 81
92 82
92 83
92 91
93 3
93 13
93 23
93 30
93 33
93 39
93 43
93 48
93 53
93 57
93 63
93 66
93 71
93 73
93 75
93 82
93 83
93 84
93 91
93 92
94 4
94 14
94 24
94 34
94 40
94 44
94 49
94 54
94 58
94 61
94 64
94 67
94 72
94 74
94 76
94 83
94 84
94 85
94 91
94 92
94 93
95 5
95 15
95 25
95 35
95 45
95 50
95 51
95 55
95 59
95 62
95 65
95 68
95 73
95 75
95 77
95 84
95 85
95 86
95 91
95 92
95 93
95 94
96 6
96 16
96 26
96 36
96 41
96 46
96 52
96 56
96 60
96 63
96 66
96 69
96 74
96 76
96 78
96 85
96 86
96 87
96 91
96 92
96 93
96 94
96 95
97 7
97 17
97 27
97 31
97 37
97 42
97 47
97 53
97 57
97 64
97 67
97 70
97 75
97 77
97 79
97 86
97 87
97 88
97 91
97 92
97 93
97 94
97 95
97 96
98 8
98 18
98 21
98 28
98 32
98 38
98 43
98 48
98 54
98 58
98 65
98 68
98 76
98 78
98 80
98 87
98 88
98 89
98 91
98 92
98 93
98 94
98 95
98 96
98 97
99 9
99 11
99 19
99 22
99 29
99 33
99 39
99 44
99 49
99 55
99 59
99 66
99 69
99 77
99 79
99 88
99 89
99 90
99 91
99 92
99 93
99 94
99 95
99 96
99 97
99 98
100 1
100 10
100 12
100 20
100 23
100 30
100 34
100 40
100 45
100 50
100 56
100 60
100 67
100 70
100 78
100 80
100 89
100 90
100 91
100 92
100 93
100 94
100 95
100 96
100 97
100 98
100 99
?